** 3-point-bending prediction for the cubic-lattice bending specimen
** (Dummer & Regueiro 2026, Fig. 16), size a=10mm, A0V100 (pure Vero) material variant.
** Auto-generated by generate_bending_jobs_A0V100.py -- do not hand-edit; regenerate instead.
**
** Mesh: generated natively by EdelweissFE's CuboidLatticeGenerator (no
** external mesh file/script) -- 2x8x1 unit cells of 5.0mm
** edge, 2.5mm through-hole (1.25mm outer wall, 2.5mm
** internal wall between tiled cells -- see ../bending_lattice_specimens/
** for the matching openvcad geometry and its derivation from the paper).
** Axis convention (matches the openvcad specimens): length a in X,
** height 4a in Y, thickness (1 unit cell) in Z.
**
** Material: Marmot CompressibleFiniteStrainLinearViscoelasticity,
** Mooney-Rivlin base (baseModel=2: C10, C01, kappa), the A0V100 (pure
** Vero) QLV-Marmot fit (C10=79.6016MPa, C01=124.663MPa, kappa=7960.16MPa, 3-term
** Prony series) used by this project's own dogbone-lattice relaxation
** jobs (../../dogbone-lattices/edelweissfe/A0V100/) -- NOT the paper's own
** FLX-YK-S70 (Table 3) calibration used in ../edelweissfe_bending/.
**
** Boundary conditions -- true 3-point bend, beam axis Y, pushed in X
** (paper's own bending case is a different load case: a cantilever,
** bottom fixed, top rotated), each distributed via a rigid body
** constraint tying a whole cross-section to a reference point (RP) --
** see ../edelweissfe_bending/generate_bending_jobs.py's module docstring
** for the full reasoning:
**   - pinSupport RP    (found at Lx/2, 0, Lz/2): ties gen_bottom;
**     1=0, 2=0, 3=0 at the RP.
**   - rollerSupport RP (found at Lx/2, 40, Lz/2): ties gen_top;
**     1=0 at the RP.
**   - loadNode RP       (found at Lx/2, 20, strut_width/2): ties
**     midspanCrossSection; displacement-controlled push in +X at the RP,
**     ramped to 1mm (0.1*a) over 180s then held for
**     420s.
**
** Output: loadForce/loadDisp (loadNode RP displacement in X; reaction
** force summed over the tied midspanCrossSection, for a load-deflection
** and load-time curve) plus the full displacement/stress fields
** (ensight).

*modelGenerator, generator=cuboidlatticegenerator, name=gen
lX=5
lY=5
lZ=5
nEleX=8
nEleY=8
nEleZ=8
nEleStrutX=2
nEleStrutY=2
nEleStrutZ=2
nX=2
nY=8
nZ=1
elType=C3D8UL

*modelGenerator, generator=executePythonCode, name=gen2, executeAfterManualGeneration=True
** midspanCrossSection: every node at y=Ly/2 (no built-in generator set
** covers an interior cross-section; gen_bottom/gen_top only give the
** two y-end faces). This is the lattice's own hollow-frame cross
** section at that y (a through-channel runs the full height at the
** cell's own x,z center), not a filled square.
from edelweissfe.sets.nodeset import NodeSet
model.nodeSets['midspanCrossSection'] = NodeSet('midspanCrossSection', [n for n in model.nodes.values()
                                                 if abs(n.coordinates[1] - 20) <= 1e-6])

*modelGenerator, generator=findClosestNode, name=gen3
location='5, 0, 2.5'
storeIn=pinSupport

*modelGenerator, generator=findClosestNode, name=gen4
location='5, 40, 2.5'
storeIn=rollerSupport

*modelGenerator, generator=findClosestNode, name=gen5
location='5, 20, 0.625'
storeIn=loadNode

*constraint, type=rigidbody, name=pinRB
nSet=gen_bottom
referencePoint=pinSupport

*constraint, type=rigidbody, name=rollerRB
nSet=gen_top
referencePoint=rollerSupport

*constraint, type=rigidbody, name=loadRB
nSet=midspanCrossSection
referencePoint=loadNode

*material, name=CompressibleFiniteStrainLinearViscoelasticity, id=qlvA0V100
** baseModel(2=MooneyRivlin), onlyShearCreep, C10, C01, kappa,
2, 1,
79.60155083, 124.663219, 7960.155083,
** nMaxwell, (gamma_i, tau_i) x 3
3,
0.1736139437, 0.5960381586,
0.1700681264, 37.33240272,
0.6563138925, 3222.45285,
** rho (unused by this quasi-static analysis; physically-reasonable placeholder)
1.1e-09

*section, name=section1, material=qlvA0V100, type=solid
all

*job, name=a10mm_3pb_A0V100, domain=3d
*solver, solver=NISTParallel, name=theSolver

*fieldOutput
>>perNode, name=displacement, elSet=all, field=displacement, result=U
>>perElement, name=stress, elSet=all, result=stress, quadraturePoint=0:8, f(x)='np.mean(x,axis=1)'
>>perNode, name=loadDisp, nSet=loadNode, field=displacement, result=U, f(x)='np.mean(x[:,0])', saveHistory=True, export=loadDisp
>>perNode, name=loadForce, nSet=midspanCrossSection, field=displacement, result=P, f(x)='np.sum(x[:,0])', saveHistory=True, export=loadForce
>>perNode, name=supportForcePin, nSet=gen_bottom, field=displacement, result=P, f(x)='np.sum(x[:,0])', saveHistory=True, export=supportForcePin
>>perNode, name=supportForceRoller, nSet=gen_top, field=displacement, result=P, f(x)='np.sum(x[:,0])', saveHistory=True, export=supportForceRoller

*output, type=ensight, name=ensightExport
>>perNode, fieldOutput=displacement
>>perElement, fieldOutput=stress
>>configuration, overwrite=yes

*output, type=monitor, name=mon
fieldOutput=loadForce

** NOTE: maxInc/minInc/startInc are FRACTIONS of stepLength (0..1), matching
** this project's existing edelweissfe/generate_jobs.py convention.

*step, solver=theSolver
startInc=0.05, maxInc=0.05, minInc=1e-4, maxNumInc=100000, maxIter=25, stepLength=180
>>options, category=NISTSolver, extrapolation=linear, linsolver=pardiso
>>dirichlet, name=pin, nSet=pinSupport, field=displacement, 1=0, 2=0, 3=0
>>dirichlet, name=pinRot, nSet=pinSupport, field=rotation, 1=0, 2=0
>>dirichlet, name=roller, nSet=rollerSupport, field=displacement, 1=0, 2=0, 3=0
>>dirichlet, name=rollerRot, nSet=rollerSupport, field=rotation, 1=0, 2=0
>>dirichlet, name=load, nSet=loadNode, field=displacement, 1=1, 2=0, 3=0
>>dirichlet, name=loadRot, nSet=loadNode, field=rotation, 1=0, 2=0

*step, solver=theSolver
startInc=0.05, maxInc=0.05, minInc=1e-4, maxNumInc=100000, maxIter=25, stepLength=420
>>options, category=NISTSolver, extrapolation=linear, linsolver=pardiso
